NAME          
ROWS
 N  OBJ
 L  c1
 L  c2
 L  c3
COLUMNS
    MARKER    'MARKER'                 'INTORG'
    x[1]      c1        534
    x[1]      c2        861
    x[1]      c3        809
    x[1]      OBJ       -296
    x[2]      c1        123
    x[2]      c2        847
    x[2]      c3        966
    x[2]      OBJ       -994
    x[3]      c1        613
    x[3]      c2        404
    x[3]      c3        451
    x[3]      OBJ       -664
    x[4]      c1        508
    x[4]      c2        529
    x[4]      c3        954
    x[4]      OBJ       -606
    x[5]      c1        182
    x[5]      c2        201
    x[5]      c3        797
    x[5]      OBJ       -171
    x[6]      c1        963
    x[6]      c2        63
    x[6]      c3        409
    x[6]      OBJ       -554
    x[7]      c1        617
    x[7]      c2        154
    x[7]      c3        130
    x[7]      OBJ       -148
    x[8]      c1        633
    x[8]      c2        153
    x[8]      c3        240
    x[8]      OBJ       -133
    x[9]      c1        735
    x[9]      c2        47
    x[9]      c3        319
    x[9]      OBJ       -574
    x[10]     c1        568
    x[10]     c2        768
    x[10]     c3        597
    x[10]     OBJ       -967
    x[11]     c1        206
    x[11]     c2        905
    x[11]     c3        515
    x[11]     OBJ       -110
    x[12]     c1        644
    x[12]     c2        607
    x[12]     c3        436
    x[12]     OBJ       -73
    x[13]     c1        382
    x[13]     c2        8
    x[13]     c3        170
    x[13]     OBJ       -206
    x[14]     c1        227
    x[14]     c2        886
    x[14]     c3        445
    x[14]     OBJ       -224
    x[15]     c1        906
    x[15]     c2        778
    x[15]     c3        995
    x[15]     OBJ       -496
    x[16]     c1        441
    x[16]     c2        427
    x[16]     c3        886
    x[16]     OBJ       -892
    x[17]     c1        508
    x[17]     c2        775
    x[17]     c3        39
    x[17]     OBJ       -977
    x[18]     c1        472
    x[18]     c2        4
    x[18]     c3        55
    x[18]     OBJ       -6
    x[19]     c1        382
    x[19]     c2        34
    x[19]     c3        182
    x[19]     OBJ       -82
    x[20]     c1        861
    x[20]     c2        933
    x[20]     c3        718
    x[20]     OBJ       -502
    x[21]     c1        137
    x[21]     c2        549
    x[21]     c3        436
    x[21]     OBJ       -907
    x[22]     c1        19
    x[22]     c2        9
    x[22]     c3        639
    x[22]     OBJ       -644
    x[23]     c1        927
    x[23]     c2        335
    x[23]     c3        732
    x[23]     OBJ       -786
    x[24]     c1        544
    x[24]     c2        721
    x[24]     c3        372
    x[24]     OBJ       -499
    x[25]     c1        252
    x[25]     c2        74
    x[25]     c3        267
    x[25]     OBJ       -461
    x[26]     c1        901
    x[26]     c2        936
    x[26]     c3        621
    x[26]     OBJ       -746
    x[27]     c1        344
    x[27]     c2        415
    x[27]     c3        116
    x[27]     OBJ       -312
    x[28]     c1        260
    x[28]     c2        546
    x[28]     c3        409
    x[28]     OBJ       -247
    x[29]     c1        409
    x[29]     c2        445
    x[29]     c3        394
    x[29]     OBJ       -668
    x[30]     c1        38
    x[30]     c2        282
    x[30]     c3        285
    x[30]     OBJ       -812
    x[31]     c1        131
    x[31]     c2        60
    x[31]     c3        176
    x[31]     OBJ       -964
    x[32]     c1        808
    x[32]     c2        912
    x[32]     c3        742
    x[32]     OBJ       -340
    x[33]     c1        561
    x[33]     c2        137
    x[33]     c3        81
    x[33]     OBJ       -169
    x[34]     c1        549
    x[34]     c2        519
    x[34]     c3        77
    x[34]     OBJ       -139
    x[35]     c1        650
    x[35]     c2        411
    x[35]     c3        883
    x[35]     OBJ       -306
    x[36]     c1        211
    x[36]     c2        11
    x[36]     c3        11
    x[36]     OBJ       -164
    x[37]     c1        798
    x[37]     c2        305
    x[37]     c3        24
    x[37]     OBJ       -516
    x[38]     c1        840
    x[38]     c2        322
    x[38]     c3        396
    x[38]     OBJ       -311
    x[39]     c1        826
    x[39]     c2        668
    x[39]     c3        529
    x[39]     OBJ       -524
    x[40]     c1        785
    x[40]     c2        819
    x[40]     c3        939
    x[40]     OBJ       -596
    x[41]     c1        938
    x[41]     c2        804
    x[41]     c3        590
    x[41]     OBJ       -142
    x[42]     c1        928
    x[42]     c2        611
    x[42]     c3        212
    x[42]     OBJ       -467
    x[43]     c1        205
    x[43]     c2        161
    x[43]     c3        831
    x[43]     OBJ       -909
    x[44]     c1        380
    x[44]     c2        328
    x[44]     c3        142
    x[44]     OBJ       -927
    x[45]     c1        164
    x[45]     c2        671
    x[45]     c3        756
    x[45]     OBJ       -546
    x[46]     c1        349
    x[46]     c2        314
    x[46]     c3        236
    x[46]     OBJ       -201
    x[47]     c1        916
    x[47]     c2        592
    x[47]     c3        231
    x[47]     OBJ       -322
    x[48]     c1        870
    x[48]     c2        158
    x[48]     c3        831
    x[48]     OBJ       -87
    x[49]     c1        226
    x[49]     c2        816
    x[49]     c3        524
    x[49]     OBJ       -348
    x[50]     c1        928
    x[50]     c2        823
    x[50]     c3        301
    x[50]     OBJ       -389
RHS
    rhs       c1        13200
    rhs       c2        11569
    rhs       c3        11448
RANGES
BOUNDS
 BV bounds    x[1]
 BV bounds    x[2]
 BV bounds    x[3]
 BV bounds    x[4]
 BV bounds    x[5]
 BV bounds    x[6]
 BV bounds    x[7]
 BV bounds    x[8]
 BV bounds    x[9]
 BV bounds    x[10]
 BV bounds    x[11]
 BV bounds    x[12]
 BV bounds    x[13]
 BV bounds    x[14]
 BV bounds    x[15]
 BV bounds    x[16]
 BV bounds    x[17]
 BV bounds    x[18]
 BV bounds    x[19]
 BV bounds    x[20]
 BV bounds    x[21]
 BV bounds    x[22]
 BV bounds    x[23]
 BV bounds    x[24]
 BV bounds    x[25]
 BV bounds    x[26]
 BV bounds    x[27]
 BV bounds    x[28]
 BV bounds    x[29]
 BV bounds    x[30]
 BV bounds    x[31]
 BV bounds    x[32]
 BV bounds    x[33]
 BV bounds    x[34]
 BV bounds    x[35]
 BV bounds    x[36]
 BV bounds    x[37]
 BV bounds    x[38]
 BV bounds    x[39]
 BV bounds    x[40]
 BV bounds    x[41]
 BV bounds    x[42]
 BV bounds    x[43]
 BV bounds    x[44]
 BV bounds    x[45]
 BV bounds    x[46]
 BV bounds    x[47]
 BV bounds    x[48]
 BV bounds    x[49]
 BV bounds    x[50]
ENDATA
